0 0 0 0
0 1 0 0
0 2 1 0
0 3 0 0
0 4 0 3
0 5 0 3
0 6 0 3
0 7 0 1
0 8 2 6
0 9 0 6
0 10 2 12
0 11 0 17
0 12 0 3
0 13 2 6
0 14 0 10
0 15 1 1
0 16 0 16
0 17 0 16
0 18 0 8
0 19 0 18
0 20 0 13
0 21 1 18
0 22 2 8
0 23 1 13
0 24 0 17
0 25 1 16
0 26 1 21
0 27 0 17
0 28 1 21
0 29 0 24
0 30 0 23
0 31 0 28
